; generated by godel from rulebook `loan` — do not edit by hand
(define-fun approve ((cibil Int) (income Int) (loan Int) (balance Int)) Bool (and (and (>= cibil 700) (<= loan (* 10 income))) (>= (* 100 balance) (* 2 loan))))
(declare-const cibil Int)
(declare-const income Int)
(declare-const loan Int)
(declare-const balance Int)

; guardrail never_subprime: expect `unsat` (no input breaks it)
(push)
(assert (approve cibil income loan balance))
(assert (not (>= cibil 650)))
(check-sat)
(pop)
